Log-file from 'building' test run over models/adversarial_example/AdversarialExample1.onnx. 
 
GurobiML Build time: 2.9232 seconds 
GurobiML Memory: 41.28      MByte 
Presolve call: 2.6364 seconds 



Set parameter LicenseID to value 2734490
Academic license - for non-commercial use only - expires 2026-11-07
Gurobi Optimizer version 12.0.3 build v12.0.3rc0 (win64 - Windows 11+.0 (26200.2))

CPU model: AMD Ryzen 7 5700X 8-Core Processor, instruction set [SSE2|AVX|AVX2]
Thread count: 8 physical cores, 16 logical processors, using up to 16 threads

Presolve a model with 2570 rows, 5268 columns and 1348618 nonzeros
Model fingerprint: 0xfc495656
Model has 2570 simple general constraints
  2570 MAX
Variable types: 5268 continuous, 0 integer (0 binary)
Coefficient statistics:
  Matrix range     [4e-08, 1e+00]
  Objective range  [0e+00, 0e+00]
  Bounds range     [1e+00, 1e+00]
  RHS range        [3e-05, 9e-02]
Presolve added 5366 rows and 2796 columns
Presolve time: 2.61s

Process finished with exit code 0